p cnf 20 25
-1 13 -9 0 
-1 14 -6 0 
-2 14 -6 0 
-3 4 7 15 0 
-2 15 0 
-2 13 -9 0 
-4 3 7 13 -9 0 
-5 14 -6 0 
-1 15 0 
-3 4 7 14 -6 0 
-6 16 0 
-7 3 4 -8 17 0 
-9 18 0 
-1 18 0 
-10 18 0 
-9 19 0 
-1 19 0 
-1 20 0 
-10 19 0 
-11 19 0 
-11 18 0 
-12 18 0 
-12 19 0 
-10 -2 14 -6 0 
-6 15 0 
